100 1000
38 3
16 68
29 24
47 80
22 76
25 9
17 24
49 2
15 46
15 75
75 56
11 41
56 95
99 46
51 23
92 34
59 64
37 76
13 6
98 48
61 25
50 73
32 87
17 67
44 58
79 7
41 93
53 66
45 55
29 75
62 38
64 27
2 53
23 6
31 100
45 36
57 26
68 17
57 53
26 88
51 21
26 9
86 34
83 90
94 32
20 47
98 4
24 6
91 57
89 50
1 30
63 25
21 41
46 24
74 12
56 74
64 92
72 17
58 32
8 96
74 35
24 76
27 52
35 93
94 64
49 55
65 1
21 70
16 26
25 35
1 2
45 97
63 82
4 22
37 41
25 37
39 63
68 28
49 90
11 13
31 18
95 55
5 28
79 58
20 59
21 74
52 71
50 32
8 71
19 66
67 4
21 5
24 48
89 52
28 70
88 62
38 28
96 36
64 39
84 48
